1	50
13 1	29 2	8 1	14 1	44 1	48 1	7 4	5 3	42 1	31 1	1 3	49 1	22 2	3 4	11 1	23 1	41 1	17 4	39 2	32 2	12 1	10 1	40 1	35 4	24 1	26 1	47 1	34 3	27 1	33 2	46 1	25 2	28 2	30 3	16 3	43 6	38 2	45 4	0 1	9 3	36 5	37 2	2 3	18 2	6 1	15 1	4 1	20 1	21 1	19 1
